(set-logic ALL_SUPPORTED)
(set-option :produce-models true)
(declare-fun Associations (Int) (Set (Tuple String String String)))
(declare-fun SetToCheckUA () (Set (Tuple String String)))
(declare-fun SetToCheckAT () (Set (Tuple String String)))
(assert (= SetToCheckUA (insert (mkTuple "UA_test1" "UA_test1") (mkTuple "UA1_1" "UA1_1") (mkTuple "UA2_2" "UA2_2") (singleton (mkTuple "UA3_1_2" "UA3_1_2")))))
(assert (= SetToCheckAT (insert (mkTuple "Container1" "Container1")  (singleton (mkTuple "Container2" "Container2")))))
(declare-fun Containment (Int) (Set (Tuple String String)))
(declare-fun Tclosure(Int) (Set (Tuple String String)))
(declare-fun AssociationsForUA (Int) (Set (Tuple String String String)))
(declare-fun UA_U_Reachability (Int) (Set (Tuple String String)))
(declare-fun AT_Reachability (Int) (Set (Tuple String String)))
(declare-fun FinalJoin(Int) (Set (Tuple String String String)))
(assert (member (mkTuple "UA1_1" "test" "Container1") (FinalJoin 2)))
(assert (= (Tclosure 1) (tclosure (Containment 1))))(assert (= (Associations 1) (insert (mkTuple "UA_test1" "test" "Container1") (singleton (mkTuple "UA_test1" "test" "Container2")))))

(assert (= (Containment 1) (insert (mkTuple "UA1_1" "UA1_1") (mkTuple "UA_test1" "UA_test1")(mkTuple "UA1_1" "Container1") (mkTuple "Container1" "Container1") (mkTuple "Container1" "PC1") (mkTuple "UA_test1" "PC1")(mkTuple "Container2" "Container2") (mkTuple "UA2_2" "Container2") (mkTuple "UA2_2" "UA2_2") (mkTuple "UA3_1_2" "Container2") (mkTuple "UA3_1_2" "UA3_1_2") (mkTuple "UA3_1_2" "Container1") (mkTuple "Container1" "PC1") (singleton (mkTuple "Container2" "PC1")))))

(assert (= (UA_U_Reachability 1) (join SetToCheckUA (Tclosure 1))))
(assert (= (AT_Reachability 1) (join SetToCheckAT (Tclosure 1))))
(assert (= (AssociationsForUA 1) (join (UA_U_Reachability 1) (Associations 1)) ))
(assert (= (FinalJoin 1) (join (AssociationsForUA 1) (transpose (AT_Reachability 1))) ))
(assert (= (Tclosure 2) (tclosure (Containment 2))))
(declare-fun AssignmentAdded () (Set (Tuple String String)))
(assert (= AssignmentAdded (singleton(mkTuple "UA1_1" "UA_test1"))))
(assert (= (Containment 2) (union AssignmentAdded (insert (mkTuple "UA1_1" "UA1_1") (mkTuple "UA_test1" "UA_test1")(mkTuple "UA1_1" "Container1") (mkTuple "Container1" "Container1") (mkTuple "Container1" "PC1") (mkTuple "UA_test1" "PC1")(mkTuple "Container2" "Container2") (mkTuple "UA2_2" "Container2") (mkTuple "UA2_2" "UA2_2") (mkTuple "UA3_1_2" "Container2") (mkTuple "UA3_1_2" "UA3_1_2") (mkTuple "UA3_1_2" "Container1") (mkTuple "Container1" "PC1") (singleton (mkTuple "Container2" "PC1"))))))


(assert (= (UA_U_Reachability 2) (join SetToCheckUA (Tclosure 2))))
(assert (= (AT_Reachability 2) (join SetToCheckAT (Tclosure 2))))
(assert (= (AssociationsForUA 2) (join (UA_U_Reachability 2) (Associations 2)) ))
(assert (= (FinalJoin 2) (join (AssociationsForUA 2) (transpose (AT_Reachability 2))) ))

(check-sat)
(get-model)